Solution in this episode: [255, 375, 0, 69, 85, 171, 221, 443, 493, 426, 119, 188, 340, 35, 238, 290, 306, 358, 51, 273, 476, 460, 102, 324, 204, 18, 408, 154, 136, 392, 259, 377, 2, 71, 88, 173, 261, 223, 444, 496, 429, 265, 379, 266, 122, 191, 269, 343, 37, 383, 7, 240, 292, 309, 360, 387, 10, 76, 53, 276, 12, 80, 389, 16, 478, 462, 93, 104, 327, 208, 20, 83, 180, 230, 411, 155, 98, 182, 232, 138, 394, 101, 185, 235, 448, 451, 502, 431, 126, 455, 456, 194, 434, 128, 504, 509, 196, 346, 436, 349, 42, 441, 130, 246, 135, 299, 199, 316, 203, 367, 352, 45, 61, 277, 356, 48, 280, 484, 249, 469, 300, 253, 112, 329, 317, 304, 332, 209, 369, 321, 213, 27, 372, 62, 284, 66, 417, 163, 286, 488, 470, 146, 492, 398, 473, 114, 336, 116, 401, 339, 216, 28, 220, 32, 419, 166, 423, 167, 148, 151, 404, 407]
